Set parameter TokenServer to value "hpc-licenses.hpcc.usc.edu"
Set parameter TimeLimit to value 3600
Gurobi Optimizer version 9.5.1 build v9.5.1rc2 (linux64)
Thread count: 20 physical cores, 20 logical processors, using up to 20 threads
Optimize a model with 6007 rows, 4529 columns and 24534 nonzeros
Model fingerprint: 0xa4189ee2
Variable types: 4506 continuous, 23 integer (23 binary)
Coefficient statistics:
  Matrix range     [1e+00, 1e+00]
  Objective range  [8e-04, 1e+00]
  Bounds range     [1e+00, 1e+00]
  RHS range        [1e+00, 6e+01]
Found heuristic solution: objective 255.4944981
Presolve removed 1520 rows and 1515 columns
Presolve time: 0.04s
Presolved: 4487 rows, 3014 columns, 21975 nonzeros
Variable types: 2994 continuous, 20 integer (20 binary)

Root relaxation: objective 2.648540e+02, 2452 iterations, 0.08 seconds (0.15 work units)

    Nodes    |    Current Node    |     Objective Bounds      |     Work
 Expl Unexpl |  Obj  Depth IntInf | Incumbent    BestBd   Gap | It/Node Time

     0     0  264.85404    0    4  255.49450  264.85404  3.66%     -    0s
H    0     0                     257.9529514  264.85404  2.68%     -    0s
     0     0  264.70959    0    4  257.95295  264.70959  2.62%     -    0s
     0     0  264.55067    0    4  257.95295  264.55067  2.56%     -    0s
     0     0  264.54885    0    4  257.95295  264.54885  2.56%     -    0s
     0     0  264.38697    0    4  257.95295  264.38697  2.49%     -    0s
     0     0  264.35981    0    4  257.95295  264.35981  2.48%     -    0s
     0     0  264.35850    0    4  257.95295  264.35850  2.48%     -    0s
H    0     0                     263.2907556  264.28246  0.38%     -    0s
     0     0  264.28246    0    5  263.29076  264.28246  0.38%     -    0s
     0     0  264.27982    0    3  263.29076  264.27982  0.38%     -    0s
     0     0  264.25862    0    2  263.29076  264.25862  0.37%     -    0s
     0     0  264.25862    0    4  263.29076  264.25862  0.37%     -    0s
     0     0  264.25535    0    3  263.29076  264.25535  0.37%     -    1s
     0     0  264.25535    0    2  263.29076  264.25535  0.37%     -    1s
H    0     0                     263.4373719  264.25535  0.31%     -    1s
     0     0  264.17793    0    4  263.43737  264.17793  0.28%     -    1s
     0     0  264.17793    0    4  263.43737  264.17793  0.28%     -    1s
     0     2  264.17793    0    4  263.43737  264.17793  0.28%     -    2s

Cutting planes:
  Gomory: 1
  MIR: 579
  Flow cover: 5
  RLT: 16

Explored 20 nodes (6129 simplex iterations) in 2.66 seconds (1.52 work units)
Thread count was 20 (of 20 available processors)

Solution count 4: 263.437 263.291 257.953 255.494 

Optimal solution found (tolerance 1.00e-04)
Best objective 2.634373719129e+02, best bound 2.634373719129e+02, gap 0.0000%



#########node  1
V1.8
#########node  2
0.3627450980392157,0.6372549019607843
#########node  3
1.0,0.0


Total Solving Time 2.9887068271636963
obj value 263.4373719128514
Policy Regret train (Sum) 13.487813242844421
Best Treatment Found train (%) 49.0
treatment classification acc train (%) 53.400000000000006
Policy Regret test (Sum) 61.813832268000596
Best Treatment Found test (%) 75.11
treatment classification acc test (%) 50.96000000000001
